Route #1: 36 23 2 8 12 38 31
Route #2: 10 1 37 28 14 19 18 5
Route #3: 20 21 33
Route #4: 35 41 40 27 25 32 29 30
Route #5: 4 3 11 13 22 24 6 42
Route #6: 26 39 34 16 15 7 17 9
Cost 742
Time 0.059796
